Version identifier: 12.10.0.0 | 2019-11-26 | 843d4de
CPXPARAM_WorkMem                                 16384
CPXPARAM_MIP_Limits_TreeMemory                   24576
Tried aggregator 2 times.
MIP Presolve modified 42 coefficients.
Aggregator did 50 substitutions.
Reduced MIP has 163 rows, 180 columns, and 732 nonzeros.
Reduced MIP has 180 binaries, 0 generals, 0 SOSs, and 0 indicators.
Presolve time = 0,00 sec. (1,06 ticks)
Found incumbent of value 522,000000 after 0,00 sec. (1,52 ticks)
Probing time = 0,00 sec. (0,33 ticks)
Tried aggregator 1 time.
Detecting symmetries...
MIP Presolve eliminated 42 rows and 0 columns.
MIP Presolve added 84 rows and 0 columns.
Reduced MIP has 205 rows, 180 columns, and 774 nonzeros.
Reduced MIP has 180 binaries, 0 generals, 0 SOSs, and 0 indicators.
Presolve time = 0,00 sec. (1,03 ticks)
Probing time = 0,00 sec. (0,32 ticks)
Clique table members: 532.
MIP emphasis: balance optimality and feasibility.
MIP search method: dynamic search.
Parallel mode: deterministic, using up to 16 threads.
Root relaxation solution time = 0,00 sec. (1,24 ticks)

        Nodes                                         Cuts/
   Node  Left     Objective  IInf  Best Integer    Best Bound    ItCnt     Gap

*     0+    0                          522,0000        0,0000           100,00%
*     0+    0                          423,0000        0,0000           100,00%
*     0+    0                          396,0000        0,0000           100,00%
      0     0      191,5000   180      396,0000      191,5000      146   51,64%
      0     0      197,9000   180      396,0000      Cuts: 42      214   50,03%
      0     0      201,5371   180      396,0000      Cuts: 26      262   49,11%
      0     0      203,9462   180      396,0000     Cuts: 102      314   48,50%
      0     0      204,9176   180      396,0000      Cuts: 80      365   48,25%
      0     0      206,2532   180      396,0000     Cuts: 147      410   47,92%
      0     0      242,2393   180      396,0000     Cuts: 149      601   38,83%
      0     0      244,6812   180      396,0000      Cuts: 56      656   38,21%
      0     0      246,1102   180      396,0000      Cuts: 30      696   37,85%
      0     0      246,9803   180      396,0000      Cuts: 34      749   37,63%
      0     0      248,6207   180      396,0000      Cuts: 45      816   37,22%
      0     0      250,1361   180      396,0000      Cuts: 74      876   36,83%
      0     0      250,9596   180      396,0000      Cuts: 30      912   36,63%
      0     0      251,2172   180      396,0000      Cuts: 30      940   36,56%
      0     0      251,7659   180      396,0000      Cuts: 28      970   36,42%
      0     0      252,7621   180      396,0000      Cuts: 52     1023   36,17%
      0     0      253,3069   180      396,0000      Cuts: 57     1068   36,03%
      0     0      253,7573   180      396,0000      Cuts: 68     1112   35,92%
      0     0      254,3899   180      396,0000      Cuts: 68     1166   35,76%
      0     0      254,8721   180      396,0000      Cuts: 58     1221   35,64%
*     0+    0                          382,0000      254,8721            33,28%
      0     0      255,4830   180      382,0000      Cuts: 75     1280   22,51%
      0     0      255,8767   180      382,0000      Cuts: 73     1340   22,51%
      0     2      255,8767   154      382,0000      335,2500     1340   12,24%
Elapsed time = 0,38 sec. (152,00 ticks, tree = 0,02 MB, solutions = 4)

Clique cuts applied:  8
Cover cuts applied:  116
Mixed integer rounding cuts applied:  70
Zero-half cuts applied:  60
Gomory fractional cuts applied:  5

Root node processing (before b&c):
  Real time             =    0,37 sec. (151,72 ticks)
Parallel b&c, 16 threads:
  Real time             =    0,09 sec. (46,09 ticks)
  Sync time (average)   =    0,06 sec.
  Wait time (average)   =    0,00 sec.
                          ------------
Total (root+branch&cut) =    0,46 sec. (197,81 ticks)
